;; produced by z3_gnatprove.drv ;;
(set-info :smt-lib-version 2.5)
(set-info :source |VC generated by SPARK 2014|)
(set-info :category industrial)
(set-info :status unknown)
;;; generated by SMT-LIB2 driver
;;; SMT-LIB2 driver: bit-vectors, common part
;;; SMT-LIB2: integer arithmetic
(declare-sort us_private 0)

(declare-const us_null_ext__ us_private)

(declare-datatypes ()
  ((int__ref (int__refqtmk (int__content Int)))))

(declare-sort integer 0)

;; "integer'int"
(declare-fun integerqtint (integer) Int)

;; "integer'axiom"
(assert
  (forall ((i integer))
    (and
      (<= (- 2147483648) (integerqtint i))
      (<= (integerqtint i) 2147483647))))

;; "in_range"
(define-fun in_range ((x Int)) Bool
  (and (<= (- 2147483648) x) (<= x 2147483647)))

;; "to_rep"
(define-fun to_rep ((x integer)) Int
  (integerqtint x))

;; "of_rep"
(declare-fun of_rep (Int) integer)

;; "inversion_axiom"
(assert
  (forall ((x integer)) (! (= (of_rep (to_rep x)) x) :pattern ((to_rep x)) )))

;; "range_axiom"
(assert
  (forall ((x integer)) (! (in_range (to_rep x)) :pattern ((to_rep x)) )))

;; "coerce_axiom"
(assert
  (forall ((x Int))
    (! (=> (in_range x) (= (to_rep (of_rep x)) x)) :pattern ((to_rep
                                                               (of_rep x))) )))

;; "in_range"
(define-fun in_range1 ((x Int)) Bool
  (and (<= 0 x) (<= x 2147483647)))

;; "in_range"
(define-fun in_range2 ((x Int)) Bool
  (and (<= 1 x) (<= x 1000000)))

(declare-datatypes ()
  ((t (tqtmk (rec__first integer)(rec__last integer)))))

;; "dynamic_property"
(define-fun dynamic_property ((range_first Int) (range_last Int) (low Int) (high Int)) Bool
  (and
    (in_range low)
    (and
      (in_range high)
      (=> (<= low high) (and (in_range2 low) (in_range2 high))))))

(declare-datatypes ()
  ((us_t (us_tqtmk (elts (Array Int integer))(rt t)))))

;; "to_array"
(define-fun to_array ((a us_t)) (Array Int integer)
  (elts a))

;; "first"
(define-fun first ((a us_t)) Int
  (to_rep (rec__first (rt a))))

;; "last"
(define-fun last ((a us_t)) Int
  (to_rep (rec__last (rt a))))

(declare-const value__size Int)

(declare-const object__size Int)

(declare-const component__size Int)

(declare-const alignment Int)

;; "value__size_axiom"
(assert (<= 0 value__size))

;; "object__size_axiom"
(assert (<= 0 object__size))

;; "component__size_axiom"
(assert (<= 0 component__size))

;; "alignment_axiom"
(assert (<= 0 alignment))

(declare-const a us_t)

(declare-const x Int)

(declare-const y Int)

;; "dynamic_invariant"
(define-fun dynamic_invariant ((temp___expr_181 us_t) (temp___is_init_177 Bool) (temp___skip_constant_178 Bool) (temp___do_toplevel_179 Bool) (temp___do_typ_inv_180 Bool)) Bool
  (=>
    (not (= temp___skip_constant_178 true))
    (dynamic_property
      1
      1000000
      (first temp___expr_181)
      (last temp___expr_181))))

(declare-const l Int)

;; "l'unused"
(define-fun lqtunused () int__ref
  (int__refqtmk l))

;; "Assume"
(assert (dynamic_invariant a true false true true))

;; "Assume"
(assert (in_range x))

;; "Assume"
(assert (in_range y))

;; "Assume"
(assert
  (and
    (and (<= (first a) x) (<= x (last a)))
    (and (<= (first a) y) (<= y (last a)))))

;; "temp___195"
(define-fun temp___195 () Bool
  (ite (= x y) true false))

;; "infix ='result'unused"
(define-fun infix_eqqtresultqtunused () Bool
  temp___195)

;; "Assert"
(assert (and (<= (first a) y) (<= y (last a))))

;; "o"
(define-fun o () (Array Int integer)
  (to_array a))

;; "to_array'result'unused"
(define-fun to_arrayqtresultqtunused () (Array Int integer)
  o)

;; "o"
(define-fun o1 () integer
  (select o y))

;; "get'result'unused"
(define-fun getqtresultqtunused () integer
  o1)

(declare-const o2 Int)

;; "Ensures"
(assert (= (to_rep o1) o2))

;; "to_rep'result'unused"
(define-fun to_repqtresultqtunused () Int
  o2)

;; "Assert"
(assert (and (<= (first a) x) (<= x (last a))))

;; "o"
(define-fun o3 () (Array Int integer)
  (to_array a))

;; "to_array'result'unused"
(define-fun to_arrayqtresultqtunused1 () (Array Int integer)
  o3)

;; "o"
(define-fun o4 () integer
  (select o3 x))

;; "get'result'unused"
(define-fun getqtresultqtunused1 () integer
  o4)

(declare-const o5 Int)

;; "Ensures"
(assert (= (to_rep o4) o5))

;; "to_rep'result'unused"
(define-fun to_repqtresultqtunused1 () Int
  o5)

;; "infix ='result'unused"
(define-fun infix_eqqtresultqtunused1 () Bool
  (ite (= o5 o2) true false))

;; "o"
(define-fun o6 () Bool
  (or (ite (= o5 o2) false true) temp___195))

;; "orb'result'unused"
(define-fun orbqtresultqtunused () Bool
  o6)

;; "Assume"
(assert true)

;; "Assume"
(assert (in_range1 l))

(declare-const l1 Int)

;; "l'unused"
(define-fun lqtunused1 () int__ref
  (int__refqtmk l1))

;; "H"
(assert (= l1 0))

(declare-const o7 Bool)

(declare-const o8 Int)

;; "H"
(assert (= o8 (last a)))

(declare-const lastqtresultqtunused Int)

;; "H"
(assert (= lastqtresultqtunused o8))

(declare-const int__contentqtresultqtunused Int)

;; "H"
(assert (= int__contentqtresultqtunused l1))

(declare-const o9 Int)

;; "H"
(assert (= o9 (+ x l1)))

(declare-const infix_plqtresultqtunused Int)

;; "H"
(assert (= infix_plqtresultqtunused o9))

;; "Ensures"
(assert (in_range o9))

(declare-const range_check_qtresultqtunused Int)

;; "H"
(assert (= range_check_qtresultqtunused o9))

(declare-const infix_lseqqtresultqtunused Bool)

;; "H"
(assert (= infix_lseqqtresultqtunused (ite (<= o9 o8) true false)))

(declare-const o10 Bool)

(declare-const o11 Int)

(declare-const lastqtresultqtunused1 Int)

(declare-const int__contentqtresultqtunused1 Int)

(declare-const o12 Int)

(declare-const infix_plqtresultqtunused1 Int)

(declare-const range_check_qtresultqtunused1 Int)

(declare-const infix_lseqqtresultqtunused1 Bool)

;; "H"
(assert
  (ite (<= o9 o8)
    (and
      (= o11 (last a))
      (and
        (= lastqtresultqtunused1 o11)
        (and
          (= int__contentqtresultqtunused1 l1)
          (and
            (= o12 (+ y l1))
            (and
              (= infix_plqtresultqtunused1 o12)
              (and
                (in_range o12)
                (and
                  (= range_check_qtresultqtunused1 o12)
                  (and
                    (= o10 (ite (<= o12 o11) true false))
                    (= infix_lseqqtresultqtunused1 o10)))))))))
    (= o10 false)))

(declare-const int__contentqtresultqtunused2 Int)

(declare-const o13 Int)

(declare-const infix_plqtresultqtunused2 Int)

(declare-const range_check_qtresultqtunused2 Int)

(declare-const o14 (Array Int integer))

(declare-const to_arrayqtresultqtunused2 (Array Int integer))

(declare-const o15 integer)

(declare-const getqtresultqtunused2 integer)

(declare-const o16 Int)

(declare-const to_repqtresultqtunused2 Int)

(declare-const int__contentqtresultqtunused3 Int)

(declare-const o17 Int)

(declare-const infix_plqtresultqtunused3 Int)

(declare-const range_check_qtresultqtunused3 Int)

(declare-const o18 (Array Int integer))

(declare-const to_arrayqtresultqtunused3 (Array Int integer))

(declare-const o19 integer)

(declare-const getqtresultqtunused3 integer)

(declare-const o20 Int)

(declare-const to_repqtresultqtunused3 Int)

(declare-const infix_eqqtresultqtunused2 Bool)

;; "H"
(assert
  (ite (= o10 true)
    (and
      (= int__contentqtresultqtunused2 l1)
      (and
        (= o13 (+ y l1))
        (and
          (= infix_plqtresultqtunused2 o13)
          (and
            (in_range o13)
            (and
              (= range_check_qtresultqtunused2 o13)
              (and
                (and (<= (first a) o13) (<= o13 (last a)))
                (and
                  (= o14 (to_array a))
                  (and
                    (= to_arrayqtresultqtunused2 o14)
                    (and
                      (= o15 (select o14 o13))
                      (and
                        (= getqtresultqtunused2 o15)
                        (and
                          (= (to_rep o15) o16)
                          (and
                            (= to_repqtresultqtunused2 o16)
                            (and
                              (= int__contentqtresultqtunused3 l1)
                              (and
                                (= o17 (+ x l1))
                                (and
                                  (= infix_plqtresultqtunused3 o17)
                                  (and
                                    (in_range o17)
                                    (and
                                      (= range_check_qtresultqtunused3 
                                      o17)
                                      (and
                                        (and
                                          (<= (first a) o17)
                                          (<= o17 (last a)))
                                        (and
                                          (= o18 (to_array a))
                                          (and
                                            (= to_arrayqtresultqtunused3 
                                            o18)
                                            (and
                                              (= o19 (select o18 o17))
                                              (and
                                                (= getqtresultqtunused3 
                                                o19)
                                                (and
                                                  (= (to_rep o19) o20)
                                                  (and
                                                    (= to_repqtresultqtunused3 
                                                    o20)
                                                    (and
                                                      (= o7 (ite (= o20 
                                                              o16)
                                                              true
                                                              false))
                                                      (= infix_eqqtresultqtunused2 
                                                      o7))))))))))))))))))))))))))
    (= o7 false)))

;; "H"
(assert (= o7 true))

;; "temp___loop_entry_199'unused"
(define-fun temp___loop_entry_199qtunused () Int
  l1)

;; "int__content'result'unused"
(define-fun int__contentqtresultqtunused4 () Int
  l1)

(declare-const usf Int)

(declare-const anyqtresultqtunused Int)

;; "H"
(assert (= anyqtresultqtunused usf))

(declare-const kqtunused Int)

;; "H"
(assert (= kqtunused usf))

(declare-const int__contentqtresultqtunused5 Int)

;; "H"
(assert (= int__contentqtresultqtunused5 l1))

(declare-const o21 Int)

;; "H"
(assert (= o21 (- l1 1)))

(declare-const infix_mnqtresultqtunused Int)

;; "H"
(assert (= infix_mnqtresultqtunused o21))

(declare-const o22 Bool)

;; "H"
(assert (= o22 (ite (<= usf o21) true false)))

(declare-const infix_lseqqtresultqtunused2 Bool)

;; "H"
(assert (= infix_lseqqtresultqtunused2 o22))

(declare-const o23 Bool)

;; "H"
(assert (= o23 (ite (<= 0 usf) true false)))

(declare-const infix_lseqqtresultqtunused3 Bool)

;; "H"
(assert (= infix_lseqqtresultqtunused3 o23))

(declare-const andbqtresultqtunused Bool)

;; "H"
(assert (= andbqtresultqtunused (and o23 o22)))

;; "_f'unused"
(define-fun usfqtunused () Bool
  (ite (forall ((k Int))
         (=>
           (and (<= 0 k) (<= k (- l1 1)))
           (= (to_rep (select (to_array a) (+ x k))) (to_rep
                                                       (select (to_array a) (+ 
                                                       y k))))))
    true
    false))

;; "any'result'unused"
(define-fun anyqtresultqtunused1 () Bool
  (ite (forall ((k Int))
         (=>
           (and (<= 0 k) (<= k (- l1 1)))
           (= (to_rep (select (to_array a) (+ x k))) (to_rep
                                                       (select (to_array a) (+ 
                                                       y k))))))
    true
    false))

(declare-const l2 Int)

;; "l'unused"
(define-fun lqtunused2 () int__ref
  (int__refqtmk l2))

;; "LoopInvariant"
(assert
  (forall ((k Int))
    (=>
      (and (<= 0 k) (<= k (- l2 1)))
      (= (to_rep (select (to_array a) (+ x k))) (to_rep
                                                  (select (to_array a) (+ 
                                                  y k)))))))

;; "loop_var___4038'unused"
(define-fun loop_var___4038qtunused () Int
  l2)

;; "int__content'result'unused"
(define-fun int__contentqtresultqtunused6 () Int
  l2)

;; "Assume"
(assert
  (= (and (ite (in_range1 l2) true false) (ite (and
                                                 (and
                                                   (<= (+ x l2) (last a))
                                                   (<= (+ y l2) (last a)))
                                                 (= (to_rep
                                                      (select (to_array a) (+ 
                                                      x l2))) (to_rep
                                                                (select 
                                                                (to_array
                                                                  a) (+ 
                                                                y l2)))))
                                            true
                                            false)) true))

;; "int__content'result'unused"
(define-fun int__contentqtresultqtunused7 () Int
  l2)

;; "o"
(define-fun o24 () Int
  (+ l2 1))

;; "infix +'result'unused"
(define-fun infix_plqtresultqtunused4 () Int
  o24)

;; "Ensures"
(assert (in_range o24))

;; "range_check_'result'unused"
(define-fun range_check_qtresultqtunused4 () Int
  o24)

(declare-const l3 Int)

;; "l'unused"
(define-fun lqtunused3 () int__ref
  (int__refqtmk l3))

;; "H"
(assert (= l3 o24))

(declare-const o25 Bool)

(declare-const o26 Int)

;; "H"
(assert (= o26 (last a)))

(declare-const lastqtresultqtunused2 Int)

;; "H"
(assert (= lastqtresultqtunused2 o26))

(declare-const int__contentqtresultqtunused8 Int)

;; "H"
(assert (= int__contentqtresultqtunused8 l3))

(declare-const o27 Int)

;; "H"
(assert (= o27 (+ x l3)))

(declare-const infix_plqtresultqtunused5 Int)

;; "H"
(assert (= infix_plqtresultqtunused5 o27))

;; "Ensures"
(assert (in_range o27))

(declare-const range_check_qtresultqtunused5 Int)

;; "H"
(assert (= range_check_qtresultqtunused5 o27))

(declare-const infix_lseqqtresultqtunused4 Bool)

;; "H"
(assert (= infix_lseqqtresultqtunused4 (ite (<= o27 o26) true false)))

(declare-const o28 Bool)

(declare-const o29 Int)

(declare-const lastqtresultqtunused3 Int)

(declare-const int__contentqtresultqtunused9 Int)

(declare-const o30 Int)

(declare-const infix_plqtresultqtunused6 Int)

(declare-const range_check_qtresultqtunused6 Int)

(declare-const infix_lseqqtresultqtunused5 Bool)

;; "H"
(assert
  (ite (<= o27 o26)
    (and
      (= o29 (last a))
      (and
        (= lastqtresultqtunused3 o29)
        (and
          (= int__contentqtresultqtunused9 l3)
          (and
            (= o30 (+ y l3))
            (and
              (= infix_plqtresultqtunused6 o30)
              (and
                (in_range o30)
                (and
                  (= range_check_qtresultqtunused6 o30)
                  (and
                    (= o28 (ite (<= o30 o29) true false))
                    (= infix_lseqqtresultqtunused5 o28)))))))))
    (= o28 false)))

(declare-const int__contentqtresultqtunused10 Int)

(declare-const o31 Int)

(declare-const infix_plqtresultqtunused7 Int)

(declare-const range_check_qtresultqtunused7 Int)

(declare-const o32 (Array Int integer))

(declare-const to_arrayqtresultqtunused4 (Array Int integer))

(declare-const o33 integer)

(declare-const getqtresultqtunused4 integer)

(declare-const o34 Int)

(declare-const to_repqtresultqtunused4 Int)

(declare-const int__contentqtresultqtunused11 Int)

(declare-const o35 Int)

(declare-const infix_plqtresultqtunused8 Int)

(declare-const range_check_qtresultqtunused8 Int)

(declare-const o36 (Array Int integer))

(declare-const to_arrayqtresultqtunused5 (Array Int integer))

(declare-const o37 integer)

(declare-const getqtresultqtunused5 integer)

(declare-const o38 Int)

(declare-const to_repqtresultqtunused5 Int)

(declare-const infix_eqqtresultqtunused3 Bool)

;; "H"
(assert
  (ite (= o28 true)
    (and
      (= int__contentqtresultqtunused10 l3)
      (and
        (= o31 (+ y l3))
        (and
          (= infix_plqtresultqtunused7 o31)
          (and
            (in_range o31)
            (and
              (= range_check_qtresultqtunused7 o31)
              (and
                (and (<= (first a) o31) (<= o31 (last a)))
                (and
                  (= o32 (to_array a))
                  (and
                    (= to_arrayqtresultqtunused4 o32)
                    (and
                      (= o33 (select o32 o31))
                      (and
                        (= getqtresultqtunused4 o33)
                        (and
                          (= (to_rep o33) o34)
                          (and
                            (= to_repqtresultqtunused4 o34)
                            (and
                              (= int__contentqtresultqtunused11 l3)
                              (and
                                (= o35 (+ x l3))
                                (and
                                  (= infix_plqtresultqtunused8 o35)
                                  (and
                                    (in_range o35)
                                    (and
                                      (= range_check_qtresultqtunused8 
                                      o35)
                                      (and
                                        (and
                                          (<= (first a) o35)
                                          (<= o35 (last a)))
                                        (and
                                          (= o36 (to_array a))
                                          (and
                                            (= to_arrayqtresultqtunused5 
                                            o36)
                                            (and
                                              (= o37 (select o36 o35))
                                              (and
                                                (= getqtresultqtunused5 
                                                o37)
                                                (and
                                                  (= (to_rep o37) o38)
                                                  (and
                                                    (= to_repqtresultqtunused5 
                                                    o38)
                                                    (and
                                                      (= o25 (ite (= 
                                                               o38 o34)
                                                               true
                                                               false))
                                                      (= infix_eqqtresultqtunused3 
                                                      o25))))))))))))))))))))))))))
    (= o25 false)))

;; "H"
(assert (= o25 true))

(declare-const usf1 Int)

(declare-const anyqtresultqtunused2 Int)

;; "H"
(assert (= anyqtresultqtunused2 usf1))

(declare-const kqtunused1 Int)

;; "H"
(assert (= kqtunused1 usf1))

(declare-const int__contentqtresultqtunused12 Int)

;; "H"
(assert (= int__contentqtresultqtunused12 l3))

(declare-const o39 Int)

;; "H"
(assert (= o39 (- l3 1)))

(declare-const infix_mnqtresultqtunused1 Int)

;; "H"
(assert (= infix_mnqtresultqtunused1 o39))

(declare-const o40 Bool)

;; "H"
(assert (= o40 (ite (<= usf1 o39) true false)))

(declare-const infix_lseqqtresultqtunused6 Bool)

;; "H"
(assert (= infix_lseqqtresultqtunused6 o40))

(declare-const o41 Bool)

;; "H"
(assert (= o41 (ite (<= 0 usf1) true false)))

(declare-const infix_lseqqtresultqtunused7 Bool)

;; "H"
(assert (= infix_lseqqtresultqtunused7 o41))

(declare-const andbqtresultqtunused1 Bool)

;; "H"
(assert (= andbqtresultqtunused1 (and o41 o40)))

;; "_f'unused"
(define-fun usfqtunused1 () Bool
  (ite (forall ((k Int))
         (=>
           (and (<= 0 k) (<= k (- l3 1)))
           (= (to_rep (select (to_array a) (+ x k))) (to_rep
                                                       (select (to_array a) (+ 
                                                       y k))))))
    true
    false))

;; "any'result'unused"
(define-fun anyqtresultqtunused3 () Bool
  (ite (forall ((k Int))
         (=>
           (and (<= 0 k) (<= k (- l3 1)))
           (= (to_rep (select (to_array a) (+ x k))) (to_rep
                                                       (select (to_array a) (+ 
                                                       y k))))))
    true
    false))

;; "loop_var_new___4038'unused"
(define-fun loop_var_new___4038qtunused () Int
  l3)

;; "int__content'result'unused"
(define-fun int__contentqtresultqtunused13 () Int
  l3)

;; "H"
(assert (< l2 l3))

(declare-const k Int)

;; "H"
(assert (<= 0 k))

;; "H"
(assert (<= k (- l3 1)))

;; Goal "def'vc"
;; File "lcp.ads", line 10, characters 0-0
(assert
  (not
  (= (to_rep (select (to_array a) (+ x k))) (to_rep
                                              (select (to_array a) (+ 
                                              y k))))))

(check-sat)
